# WrightEagle (Soccer Simulation League 2D)                                        
# BASE SOURCE CODE RELEASE 2010                                                    
# Copyright (C) 1998-2010 WrightEagle 2D Soccer Simulation Team,                   
#                          Multi-Agent Systems Lab.,                               
#                          School of Computer Science and Technology,               
#                          University of Science and Technology of China, China.    
#                                                                                   
# This program is free software; you can redistribute it and/or                    
# modify it under the terms of the GNU General Public License                      
# as published by the Free Software Foundation; either version 2                   
# of the License, or (at your option) any later version.                           
#                                                                                  
# This program is distributed in the hope that it will be useful,                  
# but WITHOUT ANY WARRANTY; without even the implied warranty of                   
# MERCHANTABILITY or FITNESS FOR A PARTICULAR PURPOSE.  See the                    
# GNU General Public License for more details.                                     
#                                                                                  
# You should have received a copy of the GNU General Public License                
# along with this program; if not, write to the Free Software                      
# Foundation, Inc., 51 Franklin Street, Fifth Floor, Boston, MA  02110-1301, USA.

[Formation]
9 10 11
7 8 
2 3 4 5 6
1

# H interval
10.0 10.0
# V interval
10.0 10.0 10.0 10.0

#FORMATIONMAX_X
20.0
#FORMATIONMAX_Y
20.0

# Unum-index conversition layer
# 1  2  3  4  5  6  7  8  9 10 11
# 1  2  3  4  5  6  7  8  9 10 11
# after conversition:
# 9 10 11
# 6 7 8
# 2 3 4 5
# 1
#
  1  2  3  4  5  6  7  8  9  10  11
# after conversition:
# 4 11 7
# 3 10 6
# 2 8 9 5
# 1

[KickOffPosition]
# player 1..11 
# OurKickOffPosition |     TheirKickOffPosition
# ---------------------------------------------
               -40 0                      -40 0
             -20 -20                    -20 -20
             -30 -10                    -30 -10
               -20 0                      -20 0
              -30 10                     -30 10
              -20 20                     -20 20
             -10 -10                    -10 -10
              -10 10                     -10 10
               0 -20                     -1 -20
                 0 1                      -1 10
                0 20                      -1 20
